153057
73,85,48,2,22,21,17,62,45,25,86,46,69,6,77,90,64,16,56,20,40,88,13,31,52,5,30,29,55,65,98,106,97,8,92,12,93,89,57,80,23,9,42,81,19,68,99,100,72,82,51,35,14,61,103,4,15,91,79,43,28,27,10,59,66,44,87,1,76,58,24,102,74,83,34,26,50,47,75,63,32,53,84,7,18,49,39,37,70,94,3,96,60,78,101,105,38,104,11,41,67,54,95,71,36,33,73